c "537833.clq"
p edge 141 548
e 1 5
e 1 6
e 1 7
e 1 10
e 1 17
e 1 19
e 1 23
e 1 30
e 1 36
e 1 43
e 1 56
e 1 59
e 1 69
e 1 73
e 1 135
e 2 5
e 2 6
e 2 7
e 2 8
e 2 9
e 2 11
e 2 15
e 2 17
e 2 24
e 2 29
e 2 35
e 2 45
e 2 51
e 2 80
e 2 81
e 2 88
e 2 107
e 2 117
e 2 120
e 2 121
e 2 128
e 3 5
e 3 6
e 3 7
e 3 8
e 3 9
e 3 13
e 3 15
e 3 19
e 3 31
e 3 33
e 3 56
e 3 66
e 3 77
e 3 96
e 3 99
e 3 131
e 4 5
e 4 46
e 5 6
e 5 8
e 5 10
e 5 14
e 5 16
e 5 23
e 5 26
e 5 32
e 5 35
e 5 36
e 5 60
e 5 70
e 5 71
e 5 73
e 5 77
e 5 80
e 5 108
e 5 110
e 6 7
e 6 8
e 6 10
e 6 12
e 6 15
e 6 16
e 6 18
e 6 19
e 6 20
e 6 31
e 6 32
e 6 40
e 6 43
e 6 46
e 6 47
e 6 48
e 6 49
e 6 55
e 6 58
e 6 60
e 6 61
e 6 64
e 6 67
e 6 72
e 6 74
e 6 81
e 6 82
e 6 90
e 6 92
e 6 107
e 6 109
e 6 116
e 6 117
e 6 120
e 6 121
e 6 130
e 6 140
e 7 9
e 7 11
e 7 12
e 7 13
e 7 17
e 7 18
e 7 27
e 7 34
e 7 35
e 7 36
e 7 43
e 7 46
e 7 53
e 7 57
e 7 67
e 7 71
e 7 76
e 7 81
e 7 82
e 7 92
e 7 95
e 7 101
e 7 105
e 7 106
e 7 108
e 7 119
e 8 9
e 8 11
e 8 12
e 8 14
e 8 20
e 8 21
e 8 25
e 8 35
e 8 37
e 8 45
e 8 55
e 8 60
e 8 61
e 8 62
e 8 63
e 8 67
e 8 75
e 8 103
e 8 106
e 8 115
e 8 129
e 9 10
e 9 11
e 9 12
e 9 13
e 9 14
e 9 20
e 9 21
e 9 22
e 9 24
e 9 25
e 9 26
e 9 28
e 9 30
e 9 31
e 9 34
e 9 37
e 9 41
e 9 42
e 9 47
e 9 48
e 9 49
e 9 50
e 9 53
e 9 59
e 9 62
e 9 67
e 9 68
e 9 75
e 9 79
e 9 89
e 9 92
e 9 96
e 9 101
e 9 106
e 9 109
e 9 112
e 9 113
e 9 119
e 9 123
e 9 125
e 9 138
e 10 15
e 10 16
e 10 26
e 10 27
e 10 39
e 10 41
e 10 44
e 10 55
e 10 58
e 10 68
e 10 94
e 10 111
e 10 123
e 11 26
e 11 27
e 11 34
e 11 43
e 11 64
e 11 65
e 11 117
e 12 13
e 12 17
e 12 18
e 12 25
e 12 34
e 12 69
e 12 90
e 12 95
e 12 126
e 12 134
e 12 137
e 13 14
e 13 16
e 13 18
e 13 33
e 13 40
e 13 49
e 13 57
e 13 70
e 13 72
e 13 76
e 13 80
e 13 90
e 13 96
e 13 100
e 13 138
e 14 23
e 14 25
e 14 29
e 14 31
e 14 32
e 14 41
e 14 44
e 14 56
e 14 78
e 14 84
e 14 113
e 14 118
e 14 136
e 15 19
e 15 54
e 15 58
e 15 85
e 15 99
e 15 113
e 15 123
e 16 21
e 16 22
e 16 24
e 16 47
e 16 55
e 16 86
e 16 104
e 16 122
e 17 20
e 17 21
e 17 22
e 17 38
e 17 69
e 17 118
e 17 124
e 17 127
e 17 128
e 17 130
e 18 59
e 18 89
e 18 110
e 19 29
e 19 42
e 19 107
e 19 111
e 20 22
e 20 23
e 20 36
e 20 37
e 20 44
e 20 45
e 20 48
e 20 51
e 20 101
e 20 115
e 20 134
e 20 136
e 21 50
e 21 57
e 21 114
e 22 24
e 22 30
e 22 65
e 22 103
e 22 108
e 23 27
e 23 37
e 23 39
e 23 61
e 23 76
e 23 91
e 23 102
e 23 104
e 23 137
e 23 140
e 24 44
e 24 48
e 24 51
e 24 52
e 24 53
e 24 65
e 24 96
e 24 112
e 24 119
e 24 124
e 24 139
e 25 28
e 25 30
e 25 33
e 25 40
e 25 63
e 25 71
e 25 72
e 25 83
e 25 84
e 25 94
e 25 104
e 25 122
e 25 126
e 26 28
e 26 29
e 26 38
e 26 54
e 26 59
e 26 66
e 26 69
e 26 78
e 26 80
e 26 86
e 26 95
e 26 97
e 26 98
e 26 99
e 26 111
e 26 121
e 26 123
e 27 28
e 27 32
e 27 39
e 27 49
e 27 52
e 27 54
e 27 105
e 27 128
e 27 132
e 27 141
e 28 60
e 28 125
e 28 139
e 29 33
e 29 93
e 29 114
e 30 39
e 30 73
e 30 75
e 30 79
e 30 98
e 31 40
e 31 45
e 31 84
e 31 141
e 32 41
e 33 42
e 33 81
e 33 82
e 33 98
e 33 115
e 34 38
e 34 56
e 34 85
e 34 127
e 34 130
e 34 132
e 34 133
e 35 42
e 35 51
e 35 53
e 35 78
e 35 90
e 35 107
e 35 114
e 35 125
e 36 79
e 36 85
e 36 106
e 36 139
e 37 38
e 37 91
e 37 97
e 38 57
e 38 66
e 39 47
e 39 84
e 39 85
e 39 141
e 40 50
e 40 74
e 41 46
e 41 52
e 41 72
e 41 73
e 41 75
e 41 87
e 41 100
e 41 103
e 42 64
e 42 78
e 42 121
e 43 119
e 44 70
e 44 77
e 44 91
e 45 50
e 45 58
e 45 62
e 45 71
e 45 105
e 45 135
e 46 52
e 46 68
e 46 83
e 46 105
e 46 117
e 47 62
e 47 63
e 47 98
e 47 133
e 47 139
e 49 54
e 49 77
e 50 70
e 50 76
e 50 88
e 50 102
e 51 79
e 51 134
e 52 66
e 52 82
e 52 97
e 52 116
e 52 136
e 53 64
e 53 87
e 53 100
e 53 109
e 54 63
e 54 87
e 54 94
e 56 83
e 56 95
e 56 109
e 56 126
e 56 138
e 58 93
e 58 102
e 59 61
e 59 118
e 60 68
e 61 100
e 61 102
e 61 120
e 62 120
e 62 132
e 63 65
e 63 86
e 63 88
e 63 89
e 63 134
e 63 140
e 64 74
e 64 93
e 64 122
e 66 91
e 66 135
e 66 136
e 67 104
e 67 131
e 68 94
e 68 103
e 69 112
e 69 132
e 69 140
e 70 89
e 70 93
e 70 112
e 70 126
e 70 131
e 71 127
e 72 74
e 72 83
e 72 124
e 73 87
e 73 133
e 77 129
e 78 86
e 78 110
e 78 113
e 81 99
e 81 137
e 82 88
e 82 118
e 83 125
e 86 97
e 87 114
e 88 92
e 90 101
e 90 116
e 91 127
e 91 138
e 92 129
e 94 110
e 94 141
e 98 108
e 98 111
e 98 131
e 102 115
e 106 122
e 106 129
e 107 137
e 109 124
e 109 135
e 110 130
e 113 116
e 121 133
e 124 128
